1000 500
1 2 1
3 4 1
5 6 1
7 8 1
9 10 1
11 12 1
13 14 1
15 16 1
17 18 1
19 20 1
21 22 1
23 24 1
25 26 1
27 28 1
29 30 1
31 32 1
33 34 1
35 36 1
37 38 1
39 40 1
41 42 1
43 44 1
45 46 1
47 48 1
49 50 1
51 52 1
53 54 1
55 56 1
57 58 1
59 60 1
61 62 1
63 64 1
65 66 1
67 68 1
69 70 1
71 72 1
73 74 1
75 76 1
77 78 1
79 80 1
81 82 1
83 84 1
85 86 1
87 88 1
89 90 1
91 92 1
93 94 1
95 96 1
97 98 1
99 100 1
101 102 1
103 104 1
105 106 1
107 108 1
109 110 1
111 112 1
113 114 1
115 116 1
117 118 1
119 120 1
121 122 1
123 124 1
125 126 1
127 128 1
129 130 1
131 132 1
133 134 1
135 136 1
137 138 1
139 140 1
141 142 1
143 144 1
145 146 1
147 148 1
149 150 1
151 152 1
153 154 1
155 156 1
157 158 1
159 160 1
161 162 1
163 164 1
165 166 1
167 168 1
169 170 1
171 172 1
173 174 1
175 176 1
177 178 1
179 180 1
181 182 1
183 184 1
185 186 1
187 188 1
189 190 1
191 192 1
193 194 1
195 196 1
197 198 1
199 200 1
201 202 1
203 204 1
205 206 1
207 208 1
209 210 1
211 212 1
213 214 1
215 216 1
217 218 1
219 220 1
221 222 1
223 224 1
225 226 1
227 228 1
229 230 1
231 232 1
233 234 1
235 236 1
237 238 1
239 240 1
241 242 1
243 244 1
245 246 1
247 248 1
249 250 1
251 252 1
253 254 1
255 256 1
257 258 1
259 260 1
261 262 1
263 264 1
265 266 1
267 268 1
269 270 1
271 272 1
273 274 1
275 276 1
277 278 1
279 280 1
281 282 1
283 284 1
285 286 1
287 288 1
289 290 1
291 292 1
293 294 1
295 296 1
297 298 1
299 300 1
301 302 1
303 304 1
305 306 1
307 308 1
309 310 1
311 312 1
313 314 1
315 316 1
317 318 1
319 320 1
321 322 1
323 324 1
325 326 1
327 328 1
329 330 1
331 332 1
333 334 1
335 336 1
337 338 1
339 340 1
341 342 1
343 344 1
345 346 1
347 348 1
349 350 1
351 352 1
353 354 1
355 356 1
357 358 1
359 360 1
361 362 1
363 364 1
365 366 1
367 368 1
369 370 1
371 372 1
373 374 1
375 376 1
377 378 1
379 380 1
381 382 1
383 384 1
385 386 1
387 388 1
389 390 1
391 392 1
393 394 1
395 396 1
397 398 1
399 400 1
401 402 1
403 404 1
405 406 1
407 408 1
409 410 1
411 412 1
413 414 1
415 416 1
417 418 1
419 420 1
421 422 1
423 424 1
425 426 1
427 428 1
429 430 1
431 432 1
433 434 1
435 436 1
437 438 1
439 440 1
441 442 1
443 444 1
445 446 1
447 448 1
449 450 1
451 452 1
453 454 1
455 456 1
457 458 1
459 460 1
461 462 1
463 464 1
465 466 1
467 468 1
469 470 1
471 472 1
473 474 1
475 476 1
477 478 1
479 480 1
481 482 1
483 484 1
485 486 1
487 488 1
489 490 1
491 492 1
493 494 1
495 496 1
497 498 1
499 500 1
501 502 1
503 504 1
505 506 1
507 508 1
509 510 1
511 512 1
513 514 1
515 516 1
517 518 1
519 520 1
521 522 1
523 524 1
525 526 1
527 528 1
529 530 1
531 532 1
533 534 1
535 536 1
537 538 1
539 540 1
541 542 1
543 544 1
545 546 1
547 548 1
549 550 1
551 552 1
553 554 1
555 556 1
557 558 1
559 560 1
561 562 1
563 564 1
565 566 1
567 568 1
569 570 1
571 572 1
573 574 1
575 576 1
577 578 1
579 580 1
581 582 1
583 584 1
585 586 1
587 588 1
589 590 1
591 592 1
593 594 1
595 596 1
597 598 1
599 600 1
601 602 1
603 604 1
605 606 1
607 608 1
609 610 1
611 612 1
613 614 1
615 616 1
617 618 1
619 620 1
621 622 1
623 624 1
625 626 1
627 628 1
629 630 1
631 632 1
633 634 1
635 636 1
637 638 1
639 640 1
641 642 1
643 644 1
645 646 1
647 648 1
649 650 1
651 652 1
653 654 1
655 656 1
657 658 1
659 660 1
661 662 1
663 664 1
665 666 1
667 668 1
669 670 1
671 672 1
673 674 1
675 676 1
677 678 1
679 680 1
681 682 1
683 684 1
685 686 1
687 688 1
689 690 1
691 692 1
693 694 1
695 696 1
697 698 1
699 700 1
701 702 1
703 704 1
705 706 1
707 708 1
709 710 1
711 712 1
713 714 1
715 716 1
717 718 1
719 720 1
721 722 1
723 724 1
725 726 1
727 728 1
729 730 1
731 732 1
733 734 1
735 736 1
737 738 1
739 740 1
741 742 1
743 744 1
745 746 1
747 748 1
749 750 1
751 752 1
753 754 1
755 756 1
757 758 1
759 760 1
761 762 1
763 764 1
765 766 1
767 768 1
769 770 1
771 772 1
773 774 1
775 776 1
777 778 1
779 780 1
781 782 1
783 784 1
785 786 1
787 788 1
789 790 1
791 792 1
793 794 1
795 796 1
797 798 1
799 800 1
801 802 1
803 804 1
805 806 1
807 808 1
809 810 1
811 812 1
813 814 1
815 816 1
817 818 1
819 820 1
821 822 1
823 824 1
825 826 1
827 828 1
829 830 1
831 832 1
833 834 1
835 836 1
837 838 1
839 840 1
841 842 1
843 844 1
845 846 1
847 848 1
849 850 1
851 852 1
853 854 1
855 856 1
857 858 1
859 860 1
861 862 1
863 864 1
865 866 1
867 868 1
869 870 1
871 872 1
873 874 1
875 876 1
877 878 1
879 880 1
881 882 1
883 884 1
885 886 1
887 888 1
889 890 1
891 892 1
893 894 1
895 896 1
897 898 1
899 900 1
901 902 1
903 904 1
905 906 1
907 908 1
909 910 1
911 912 1
913 914 1
915 916 1
917 918 1
919 920 1
921 922 1
923 924 1
925 926 1
927 928 1
929 930 1
931 932 1
933 934 1
935 936 1
937 938 1
939 940 1
941 942 1
943 944 1
945 946 1
947 948 1
949 950 1
951 952 1
953 954 1
955 956 1
957 958 1
959 960 1
961 962 1
963 964 1
965 966 1
967 968 1
969 970 1
971 972 1
973 974 1
975 976 1
977 978 1
979 980 1
981 982 1
983 984 1
985 986 1
987 988 1
989 990 1
991 992 1
993 994 1
995 996 1
997 998 1
999 1000 1
